32      4       
10      10      10      10      
0       0       0       0       0       2       2       7       
2       1       1       1       0       1       3       
7       0       4       3       1       1       4       
9       0       2       4       5       1       5       
8       2       5       0       3       2       6       10      
9       5       4       0       1       2       8       13      
1       5       5       0       5       2       9       13      
10      4       5       2       0       1       9       
2       0       3       4       5       1       11      
6       3       2       5       0       1       11      
2       3       6       0       4       1       12      
6       4       5       4       0       1       14      
1       4       0       3       5       1       14      
7       4       4       2       0       1       15      
4       4       5       9       0       1       16      
7       0       5       7       3       2       17      21      
9       0       5       5       2       2       18      28      
3       0       5       7       4       1       19      
10      7       0       5       5       1       20      
9       6       3       2       0       2       22      27      
10      5       0       7       5       2       23      27      
1       4       4       3       0       1       23      
5       0       4       4       5       1       24      
9       4       3       0       5       1       25      
5       5       3       0       9       1       26      
9       2       0       7       1       1       29      
5       0       6       2       4       1       29      
8       5       4       4       0       1       29      
4       0       5       3       5       1       30      
7       3       2       2       0       1       31      
1       4       0       1       3       1       32      
0       0       0       0       0       0       
